
50
13946

327 329
984 984
960 960
918 919
789 790
876 876
0 1
627 627
246 248
729 731
432 433
561 561
543 543
576 577
828 828
981 982
345 346
807 807
888 890
393 393
123 124
498 498
765 765
525 525
183 185
705 706
324 325
885 887
168 169
594 594
384 386
984 985
138 139
879 881
417 418
372 372
207 209
495 495
930 930
999 1000
939 940
612 612
237 237
507 508
648 650
294 296
987 987
84 85
234 235
204 204
